p tw 40 84
0 1
0 2
0 39
1 24
1 22
1 20
1 9
2 3
2 29
2 10
2 33
2 9
2 7
2 13
2 38
2 26
3 6
3 10
3 17
3 27
3 14
4 5
4 7
4 11
4 22
5 32
5 7
6 17
7 10
8 9
8 16
8 34
10 14
10 30
10 39
11 20
11 27
11 38
11 34
12 13
12 25
12 19
12 37
13 15
13 37
14 15
14 30
14 16
14 37
14 39
15 31
15 21
16 39
16 38
16 17
17 26
17 23
17 30
17 20
18 19
18 21
18 22
19 25
19 26
19 23
19 24
20 28
20 26
21 34
21 27
21 28
21 35
22 30
23 24
24 25
25 36
25 28
25 39
25 29
26 36
29 35
31 32
35 36
35 38
